c Standarized MaxSat Instance
c{
c "sha1sum": "33930ec34007d32bdb9a77e693306f5e6e29f4eb",
c "nvars": 60,
c "ncls": 840,
c "nhards": 0,
c "nhard_len_stats":
c    { "min": 0, "max": 0, "ave": 0.00,
c      "stddev": 0.00 },
c "nsofts": 840,
c "nsoft_len_stats":
c    { "min": 2, "max": 2, "ave": 2.00,
c      "stddev": 0.00 },
c "nsoft_wts": 10,
c "soft_wt_stats":
c    { "min": 1, "max": 10, "ave": 5.61,
c      "stddev": 2.87 }
c}
c------------------------------------------------------------
c Generated after 1 tries
c Graph with 60 nodes and 420 edges, Max edges:1770
p wcnf 60 840 4713
9 1 17 0
9 -1 -17 0
4 1 19 0
4 -1 -19 0
8 1 24 0
8 -1 -24 0
8 1 34 0
8 -1 -34 0
10 1 35 0
10 -1 -35 0
2 1 36 0
2 -1 -36 0
4 1 38 0
4 -1 -38 0
8 1 41 0
8 -1 -41 0
3 1 42 0
3 -1 -42 0
6 1 45 0
6 -1 -45 0
5 1 49 0
5 -1 -49 0
7 1 51 0
7 -1 -51 0
4 1 55 0
4 -1 -55 0
6 2 3 0
6 -2 -3 0
10 2 5 0
10 -2 -5 0
10 2 8 0
10 -2 -8 0
7 2 9 0
7 -2 -9 0
8 2 10 0
8 -2 -10 0
2 2 22 0
2 -2 -22 0
7 2 29 0
7 -2 -29 0
1 2 32 0
1 -2 -32 0
3 2 40 0
3 -2 -40 0
2 2 41 0
2 -2 -41 0
9 2 49 0
9 -2 -49 0
2 2 55 0
2 -2 -55 0
5 2 60 0
5 -2 -60 0
2 3 6 0
2 -3 -6 0
2 3 7 0
2 -3 -7 0
10 3 13 0
10 -3 -13 0
3 3 22 0
3 -3 -22 0
6 3 27 0
6 -3 -27 0
9 3 30 0
9 -3 -30 0
7 3 43 0
7 -3 -43 0
3 3 46 0
3 -3 -46 0
7 3 52 0
7 -3 -52 0
6 3 53 0
6 -3 -53 0
5 3 54 0
5 -3 -54 0
10 3 56 0
10 -3 -56 0
3 3 60 0
3 -3 -60 0
8 4 6 0
8 -4 -6 0
6 4 7 0
6 -4 -7 0
8 4 8 0
8 -4 -8 0
5 4 24 0
5 -4 -24 0
9 4 32 0
9 -4 -32 0
3 4 39 0
3 -4 -39 0
4 4 40 0
4 -4 -40 0
9 4 45 0
9 -4 -45 0
10 4 47 0
10 -4 -47 0
1 4 51 0
1 -4 -51 0
10 4 54 0
10 -4 -54 0
6 4 57 0
6 -4 -57 0
1 4 58 0
1 -4 -58 0
2 5 7 0
2 -5 -7 0
7 5 13 0
7 -5 -13 0
9 5 25 0
9 -5 -25 0
4 5 31 0
4 -5 -31 0
1 5 35 0
1 -5 -35 0
1 5 49 0
1 -5 -49 0
5 5 53 0
5 -5 -53 0
1 5 59 0
1 -5 -59 0
3 6 9 0
3 -6 -9 0
10 6 13 0
10 -6 -13 0
10 6 15 0
10 -6 -15 0
9 6 23 0
9 -6 -23 0
3 6 24 0
3 -6 -24 0
6 6 37 0
6 -6 -37 0
4 6 41 0
4 -6 -41 0
8 6 44 0
8 -6 -44 0
6 6 45 0
6 -6 -45 0
7 6 46 0
7 -6 -46 0
6 6 48 0
6 -6 -48 0
1 6 58 0
1 -6 -58 0
5 6 60 0
5 -6 -60 0
10 7 9 0
10 -7 -9 0
10 7 10 0
10 -7 -10 0
8 7 11 0
8 -7 -11 0
3 7 13 0
3 -7 -13 0
8 7 24 0
8 -7 -24 0
7 7 33 0
7 -7 -33 0
4 7 41 0
4 -7 -41 0
7 7 45 0
7 -7 -45 0
2 7 47 0
2 -7 -47 0
5 7 53 0
5 -7 -53 0
9 7 59 0
9 -7 -59 0
9 8 10 0
9 -8 -10 0
4 8 13 0
4 -8 -13 0
3 8 15 0
3 -8 -15 0
9 8 20 0
9 -8 -20 0
4 8 25 0
4 -8 -25 0
7 8 32 0
7 -8 -32 0
10 8 34 0
10 -8 -34 0
6 8 37 0
6 -8 -37 0
7 8 41 0
7 -8 -41 0
9 8 43 0
9 -8 -43 0
5 8 46 0
5 -8 -46 0
10 8 48 0
10 -8 -48 0
4 8 50 0
4 -8 -50 0
9 8 59 0
9 -8 -59 0
7 9 10 0
7 -9 -10 0
10 9 14 0
10 -9 -14 0
5 9 18 0
5 -9 -18 0
3 9 22 0
3 -9 -22 0
10 9 25 0
10 -9 -25 0
10 9 29 0
10 -9 -29 0
2 9 31 0
2 -9 -31 0
9 9 32 0
9 -9 -32 0
7 9 41 0
7 -9 -41 0
5 9 42 0
5 -9 -42 0
7 9 47 0
7 -9 -47 0
3 9 56 0
3 -9 -56 0
8 9 58 0
8 -9 -58 0
4 10 19 0
4 -10 -19 0
5 10 24 0
5 -10 -24 0
3 10 25 0
3 -10 -25 0
2 10 26 0
2 -10 -26 0
3 10 31 0
3 -10 -31 0
6 10 32 0
6 -10 -32 0
5 10 34 0
5 -10 -34 0
2 10 36 0
2 -10 -36 0
10 10 37 0
10 -10 -37 0
2 10 45 0
2 -10 -45 0
2 10 47 0
2 -10 -47 0
5 10 49 0
5 -10 -49 0
8 10 52 0
8 -10 -52 0
10 10 58 0
10 -10 -58 0
10 11 12 0
10 -11 -12 0
7 11 18 0
7 -11 -18 0
4 11 25 0
4 -11 -25 0
8 11 29 0
8 -11 -29 0
4 11 34 0
4 -11 -34 0
3 11 42 0
3 -11 -42 0
3 11 47 0
3 -11 -47 0
6 11 51 0
6 -11 -51 0
3 11 54 0
3 -11 -54 0
2 11 56 0
2 -11 -56 0
8 11 58 0
8 -11 -58 0
2 12 14 0
2 -12 -14 0
8 12 16 0
8 -12 -16 0
2 12 17 0
2 -12 -17 0
8 12 18 0
8 -12 -18 0
1 12 25 0
1 -12 -25 0
10 12 27 0
10 -12 -27 0
1 12 28 0
1 -12 -28 0
6 12 30 0
6 -12 -30 0
2 12 37 0
2 -12 -37 0
3 12 40 0
3 -12 -40 0
8 12 46 0
8 -12 -46 0
8 12 48 0
8 -12 -48 0
7 12 54 0
7 -12 -54 0
10 12 58 0
10 -12 -58 0
7 13 16 0
7 -13 -16 0
8 13 19 0
8 -13 -19 0
1 13 20 0
1 -13 -20 0
2 13 21 0
2 -13 -21 0
6 13 30 0
6 -13 -30 0
1 13 37 0
1 -13 -37 0
1 13 40 0
1 -13 -40 0
3 13 47 0
3 -13 -47 0
5 13 57 0
5 -13 -57 0
9 13 58 0
9 -13 -58 0
6 14 17 0
6 -14 -17 0
8 14 19 0
8 -14 -19 0
1 14 20 0
1 -14 -20 0
2 14 22 0
2 -14 -22 0
10 14 24 0
10 -14 -24 0
3 14 25 0
3 -14 -25 0
9 14 27 0
9 -14 -27 0
2 14 29 0
2 -14 -29 0
10 14 31 0
10 -14 -31 0
1 14 33 0
1 -14 -33 0
9 14 41 0
9 -14 -41 0
1 14 47 0
1 -14 -47 0
1 14 54 0
1 -14 -54 0
10 15 16 0
10 -15 -16 0
6 15 17 0
6 -15 -17 0
2 15 20 0
2 -15 -20 0
2 15 21 0
2 -15 -21 0
4 15 23 0
4 -15 -23 0
10 15 24 0
10 -15 -24 0
9 15 28 0
9 -15 -28 0
4 15 33 0
4 -15 -33 0
6 15 37 0
6 -15 -37 0
6 15 41 0
6 -15 -41 0
5 15 43 0
5 -15 -43 0
7 15 45 0
7 -15 -45 0
1 15 46 0
1 -15 -46 0
6 15 56 0
6 -15 -56 0
8 15 58 0
8 -15 -58 0
4 15 60 0
4 -15 -60 0
10 16 22 0
10 -16 -22 0
6 16 26 0
6 -16 -26 0
9 16 29 0
9 -16 -29 0
8 16 30 0
8 -16 -30 0
7 16 32 0
7 -16 -32 0
1 16 37 0
1 -16 -37 0
8 16 39 0
8 -16 -39 0
9 16 45 0
9 -16 -45 0
10 16 48 0
10 -16 -48 0
9 16 50 0
9 -16 -50 0
9 16 52 0
9 -16 -52 0
10 16 57 0
10 -16 -57 0
8 16 59 0
8 -16 -59 0
10 17 21 0
10 -17 -21 0
10 17 33 0
10 -17 -33 0
7 17 34 0
7 -17 -34 0
5 17 35 0
5 -17 -35 0
2 17 39 0
2 -17 -39 0
9 17 41 0
9 -17 -41 0
9 17 46 0
9 -17 -46 0
1 17 55 0
1 -17 -55 0
7 18 25 0
7 -18 -25 0
3 18 29 0
3 -18 -29 0
7 18 42 0
7 -18 -42 0
3 18 44 0
3 -18 -44 0
8 18 46 0
8 -18 -46 0
4 18 47 0
4 -18 -47 0
4 18 50 0
4 -18 -50 0
3 18 51 0
3 -18 -51 0
1 18 54 0
1 -18 -54 0
7 18 56 0
7 -18 -56 0
3 19 23 0
3 -19 -23 0
7 19 26 0
7 -19 -26 0
6 19 28 0
6 -19 -28 0
10 19 35 0
10 -19 -35 0
3 19 38 0
3 -19 -38 0
6 19 43 0
6 -19 -43 0
8 19 44 0
8 -19 -44 0
2 19 45 0
2 -19 -45 0
5 19 50 0
5 -19 -50 0
6 19 57 0
6 -19 -57 0
10 20 25 0
10 -20 -25 0
5 20 28 0
5 -20 -28 0
4 20 30 0
4 -20 -30 0
9 20 31 0
9 -20 -31 0
5 20 32 0
5 -20 -32 0
1 20 35 0
1 -20 -35 0
4 20 39 0
4 -20 -39 0
6 21 35 0
6 -21 -35 0
9 21 38 0
9 -21 -38 0
3 21 40 0
3 -21 -40 0
7 21 44 0
7 -21 -44 0
5 21 47 0
5 -21 -47 0
5 21 49 0
5 -21 -49 0
4 21 53 0
4 -21 -53 0
8 22 27 0
8 -22 -27 0
2 22 28 0
2 -22 -28 0
7 22 30 0
7 -22 -30 0
1 22 31 0
1 -22 -31 0
5 22 37 0
5 -22 -37 0
7 22 42 0
7 -22 -42 0
7 22 49 0
7 -22 -49 0
7 22 51 0
7 -22 -51 0
4 22 55 0
4 -22 -55 0
2 23 25 0
2 -23 -25 0
7 23 29 0
7 -23 -29 0
7 23 30 0
7 -23 -30 0
8 23 31 0
8 -23 -31 0
4 23 45 0
4 -23 -45 0
8 23 57 0
8 -23 -57 0
3 23 59 0
3 -23 -59 0
10 24 25 0
10 -24 -25 0
7 24 29 0
7 -24 -29 0
7 24 40 0
7 -24 -40 0
3 24 42 0
3 -24 -42 0
6 24 46 0
6 -24 -46 0
1 24 54 0
1 -24 -54 0
3 25 27 0
3 -25 -27 0
9 25 30 0
9 -25 -30 0
7 25 32 0
7 -25 -32 0
1 25 33 0
1 -25 -33 0
2 25 35 0
2 -25 -35 0
4 25 39 0
4 -25 -39 0
6 25 40 0
6 -25 -40 0
6 25 49 0
6 -25 -49 0
7 25 58 0
7 -25 -58 0
3 26 29 0
3 -26 -29 0
8 26 42 0
8 -26 -42 0
3 26 49 0
3 -26 -49 0
4 26 51 0
4 -26 -51 0
2 26 53 0
2 -26 -53 0
10 26 55 0
10 -26 -55 0
1 26 58 0
1 -26 -58 0
9 27 29 0
9 -27 -29 0
4 27 31 0
4 -27 -31 0
2 27 32 0
2 -27 -32 0
5 27 35 0
5 -27 -35 0
10 27 37 0
10 -27 -37 0
10 27 43 0
10 -27 -43 0
8 27 44 0
8 -27 -44 0
7 27 48 0
7 -27 -48 0
2 27 49 0
2 -27 -49 0
7 27 50 0
7 -27 -50 0
4 27 51 0
4 -27 -51 0
8 27 54 0
8 -27 -54 0
10 27 57 0
10 -27 -57 0
10 27 58 0
10 -27 -58 0
9 27 60 0
9 -27 -60 0
3 28 30 0
3 -28 -30 0
8 28 35 0
8 -28 -35 0
6 28 39 0
6 -28 -39 0
3 28 40 0
3 -28 -40 0
10 28 42 0
10 -28 -42 0
10 28 49 0
10 -28 -49 0
9 28 51 0
9 -28 -51 0
5 28 52 0
5 -28 -52 0
6 28 54 0
6 -28 -54 0
2 28 55 0
2 -28 -55 0
3 29 32 0
3 -29 -32 0
9 29 42 0
9 -29 -42 0
5 29 48 0
5 -29 -48 0
5 29 55 0
5 -29 -55 0
9 29 57 0
9 -29 -57 0
5 29 58 0
5 -29 -58 0
3 30 35 0
3 -30 -35 0
2 30 36 0
2 -30 -36 0
7 30 42 0
7 -30 -42 0
8 30 45 0
8 -30 -45 0
2 30 50 0
2 -30 -50 0
7 30 55 0
7 -30 -55 0
5 31 35 0
5 -31 -35 0
9 31 38 0
9 -31 -38 0
8 31 41 0
8 -31 -41 0
2 31 53 0
2 -31 -53 0
3 31 57 0
3 -31 -57 0
5 32 34 0
5 -32 -34 0
2 32 37 0
2 -32 -37 0
2 32 41 0
2 -32 -41 0
4 32 48 0
4 -32 -48 0
4 32 49 0
4 -32 -49 0
10 32 52 0
10 -32 -52 0
10 32 57 0
10 -32 -57 0
7 33 38 0
7 -33 -38 0
9 33 51 0
9 -33 -51 0
9 33 54 0
9 -33 -54 0
5 34 36 0
5 -34 -36 0
4 34 37 0
4 -34 -37 0
4 34 39 0
4 -34 -39 0
7 34 48 0
7 -34 -48 0
7 34 52 0
7 -34 -52 0
3 34 57 0
3 -34 -57 0
2 34 59 0
2 -34 -59 0
1 34 60 0
1 -34 -60 0
2 35 40 0
2 -35 -40 0
7 35 43 0
7 -35 -43 0
4 35 45 0
4 -35 -45 0
3 35 46 0
3 -35 -46 0
4 35 47 0
4 -35 -47 0
1 35 49 0
1 -35 -49 0
5 35 58 0
5 -35 -58 0
10 36 37 0
10 -36 -37 0
6 36 46 0
6 -36 -46 0
3 36 52 0
3 -36 -52 0
7 37 49 0
7 -37 -49 0
8 37 50 0
8 -37 -50 0
5 37 52 0
5 -37 -52 0
2 37 57 0
2 -37 -57 0
9 37 59 0
9 -37 -59 0
7 38 39 0
7 -38 -39 0
6 38 43 0
6 -38 -43 0
3 38 53 0
3 -38 -53 0
6 38 57 0
6 -38 -57 0
5 38 58 0
5 -38 -58 0
9 38 59 0
9 -38 -59 0
4 39 41 0
4 -39 -41 0
3 39 42 0
3 -39 -42 0
4 39 46 0
4 -39 -46 0
8 39 48 0
8 -39 -48 0
7 39 51 0
7 -39 -51 0
10 40 41 0
10 -40 -41 0
4 40 44 0
4 -40 -44 0
9 40 55 0
9 -40 -55 0
2 40 60 0
2 -40 -60 0
5 41 47 0
5 -41 -47 0
1 41 50 0
1 -41 -50 0
8 41 53 0
8 -41 -53 0
8 41 57 0
8 -41 -57 0
3 41 60 0
3 -41 -60 0
2 42 43 0
2 -42 -43 0
9 42 44 0
9 -42 -44 0
8 42 47 0
8 -42 -47 0
1 42 51 0
1 -42 -51 0
5 42 53 0
5 -42 -53 0
10 42 56 0
10 -42 -56 0
8 42 60 0
8 -42 -60 0
3 43 45 0
3 -43 -45 0
5 43 47 0
5 -43 -47 0
9 43 49 0
9 -43 -49 0
1 43 50 0
1 -43 -50 0
1 43 55 0
1 -43 -55 0
4 43 57 0
4 -43 -57 0
4 43 60 0
4 -43 -60 0
7 44 45 0
7 -44 -45 0
9 44 47 0
9 -44 -47 0
2 44 48 0
2 -44 -48 0
1 44 52 0
1 -44 -52 0
1 44 58 0
1 -44 -58 0
5 44 59 0
5 -44 -59 0
8 45 47 0
8 -45 -47 0
7 45 60 0
7 -45 -60 0
5 47 49 0
5 -47 -49 0
2 47 51 0
2 -47 -51 0
6 47 53 0
6 -47 -53 0
6 47 57 0
6 -47 -57 0
6 48 49 0
6 -48 -49 0
6 48 53 0
6 -48 -53 0
4 48 59 0
4 -48 -59 0
4 49 52 0
4 -49 -52 0
9 49 58 0
9 -49 -58 0
5 49 59 0
5 -49 -59 0
2 50 58 0
2 -50 -58 0
7 51 54 0
7 -51 -54 0
6 51 58 0
6 -51 -58 0
7 51 59 0
7 -51 -59 0
6 52 56 0
6 -52 -56 0
3 52 58 0
3 -52 -58 0
9 53 59 0
9 -53 -59 0
1 54 56 0
1 -54 -56 0
1 54 58 0
1 -54 -58 0
10 55 57 0
10 -55 -57 0
2 57 58 0
2 -57 -58 0
